
%    +-----------+
% 8  | | | | | | |
% 7  | | | | | | |
% 6  | |6| | | | |
% 5  | | | | |8| |
% 4  | |2| | | | |
% 3  | | |7| |5| |
% 2  | |1|1|3| | |
% 1  | |1|1| |4| |
%    +-----------+
n=6;
m=8;
h=2;
%maxT=45;
boxNumber=8;
boxSideLen = [2, 1, 1, 1, 1, 1, 1, 1];
boxStartX  = [2, 2, 4, 5, 5, 2, 3, 5];
boxStartY  = [1, 4, 2, 1, 3, 6, 3, 5];
